
n_res = 4;
rcap = [30, 33, 546, 584];
rtype = [1, 1, 2, 2];
n_tasks = 50;
modes =  [{1, 2, 3, 4, 5, 6}, {7, 8, 9, 10, 11, 12}, {13, 14, 15, 16, 17, 18}, {19, 20, 21, 22, 23, 24}, {25, 26, 27, 28, 29, 30}, {31, 32, 33, 34, 35, 36}, {37, 38, 39, 40, 41, 42}, {43, 44, 45, 46, 47, 48}, {49, 50, 51, 52, 53, 54}, {55, 56, 57, 58, 59, 60}, {61, 62, 63, 64, 65, 66}, {67, 68, 69, 70, 71, 72}, {73, 74, 75, 76, 77, 78}, {79, 80, 81, 82, 83, 84}, {85, 86, 87, 88, 89, 90}, {91, 92, 93, 94, 95, 96}, {97, 98, 99, 100, 101, 102}, {103, 104, 105, 106, 107, 108}, {109, 110, 111, 112, 113, 114}, {115, 116, 117, 118, 119, 120}, {121, 122, 123, 124, 125, 126}, {127, 128, 129, 130, 131, 132}, {133, 134, 135, 136, 137, 138}, {139, 140, 141, 142, 143, 144}, {145, 146, 147, 148, 149, 150}, {151, 152, 153, 154, 155, 156}, {157, 158, 159, 160, 161, 162}, {163, 164, 165, 166, 167, 168}, {169, 170, 171, 172, 173, 174}, {175, 176, 177, 178, 179, 180}, {181, 182, 183, 184, 185, 186}, {187, 188, 189, 190, 191, 192}, {193, 194, 195, 196, 197, 198}, {199, 200, 201, 202, 203, 204}, {205, 206, 207, 208, 209, 210}, {211, 212, 213, 214, 215, 216}, {217, 218, 219, 220, 221, 222}, {223, 224, 225, 226, 227, 228}, {229, 230, 231, 232, 233, 234}, {235, 236, 237, 238, 239, 240}, {241, 242, 243, 244, 245, 246}, {247, 248, 249, 250, 251, 252}, {253, 254, 255, 256, 257, 258}, {259, 260, 261, 262, 263, 264}, {265, 266, 267, 268, 269, 270}, {271, 272, 273, 274, 275, 276}, {277, 278, 279, 280, 281, 282}, {283, 284, 285, 286, 287, 288}, {289, 290, 291, 292, 293, 294}, {295, 296, 297, 298, 299, 300}];
succ =  [{21, 20, 16, 13, 10, 9}, {27, 16, 9, 8}, {24, 15, 10, 9}, {20, 8}, {30, 29, 26, 25, 16, 14, 13}, {29, 24, 14, 10}, {30, 28, 26, 25, 23, 17, 16}, {26, 25, 23, 18, 11}, {40, 30, 28, 25, 18, 17}, {33, 31, 30, 27, 26, 25, 19}, {50, 33, 31, 30, 29, 24, 19}, {37, 32, 30, 29, 28, 27, 23}, {50, 35, 34, 32, 31, 28, 19}, {50, 47, 40, 37, 35, 34, 32, 31, 28}, {50, 47, 46, 40, 37, 35, 34, 31, 28}, {50, 49, 48, 40, 39, 37, 31, 24}, {50, 49, 48, 47, 45, 37, 36, 32, 31, 29}, {50, 45, 39, 37, 36, 32, 29}, {49, 48, 47, 45, 44, 40, 39, 37, 36}, {49, 48, 47, 35, 34, 33, 32}, {47, 35, 32, 26}, {50, 47, 32, 31, 29}, {50, 49, 39, 38, 36, 35, 31}, {47, 45, 43, 35, 34, 32}, {50, 45, 43, 39, 38, 35}, {49, 48, 45, 44, 43, 34}, {47, 46, 45, 44, 43, 42, 38}, {49, 48, 42, 39, 33}, {46, 43, 35, 34}, {48, 45, 44, 42, 38}, {44, 43, 42, 41}, {46, 44, 42}, {45, 43, 41}, {42, 38}, {44, 42}, {46, 43}, {38}, {41}, {41}, {42}, {}, {}, {}, {}, {}, {}, {}, {}, {}, {}];
n_opt = 300;
dur = [1, 3, 4, 5, 15, 20, 1, 10, 13, 14, 19, 20, 3, 6, 9, 11, 13, 14, 4, 8, 9, 14, 15, 17, 2, 7, 10, 17, 19, 20, 5, 6, 7, 9, 13, 16, 1, 3, 12, 13, 18, 19, 6, 11, 14, 16, 17, 18, 14, 15, 17, 18, 19, 20, 4, 6, 10, 11, 17, 20, 3, 8, 9, 12, 14, 15, 5, 9, 11, 12, 13, 15, 2, 4, 7, 14, 19, 20, 2, 4, 5, 6, 11, 15, 3, 12, 13, 14, 15, 16, 4, 10, 13, 14, 15, 20, 3, 10, 11, 12, 16, 17, 1, 7, 8, 14, 15, 17, 1, 2, 3, 12, 17, 18, 2, 5, 6, 13, 17, 19, 2, 3, 6, 8, 18, 19, 7, 10, 11, 12, 16, 19, 3, 6, 15, 16, 17, 18, 4, 5, 6, 10, 12, 20, 2, 4, 6, 10, 18, 19, 4, 5, 9, 10, 13, 18, 3, 7, 10, 17, 19, 20, 1, 5, 15, 16, 18, 19, 1, 6, 9, 11, 14, 18, 1, 4, 12, 13, 18, 19, 3, 7, 13, 15, 16, 17, 11, 12, 16, 18, 19, 20, 1, 4, 5, 10, 19, 20, 3, 4, 6, 9, 15, 17, 9, 10, 11, 12, 14, 19, 2, 3, 4, 5, 12, 15, 1, 3, 6, 16, 18, 19, 5, 12, 13, 16, 17, 18, 4, 13, 14, 15, 16, 18, 3, 5, 16, 17, 18, 19, 1, 4, 5, 13, 17, 18, 2, 5, 7, 8, 11, 18, 1, 2, 3, 7, 13, 14, 3, 7, 14, 17, 18, 20, 5, 7, 8, 9, 13, 15, 8, 9, 10, 11, 12, 18, 1, 5, 9, 11, 15, 16, 2, 8, 10, 11, 17, 19, 6, 7, 16, 17, 19, 20, 1, 3, 8, 11, 17, 18];
rreq = [|5, 4, 4, 3, 3, 3, 3, 3, 3, 2, 2, 1, 4, 3, 3, 2, 2, 2, 2, 2, 2, 2, 1, 1, 2, 2, 2, 2, 2, 2, 5, 4, 3, 3, 1, 1, 4, 3, 3, 2, 2, 2, 4, 3, 3, 3, 2, 1, 1, 1, 1, 1, 1, 1, 3, 2, 2, 2, 2, 2, 5, 4, 4, 4, 4, 4, 3, 3, 3, 3, 3, 3, 3, 2, 2, 2, 1, 1, 5, 4, 3, 3, 1, 1, 4, 3, 3, 3, 3, 3, 5, 4, 4, 4, 4, 4, 1, 1, 1, 1, 1, 1, 4, 3, 3, 3, 2, 2, 5, 5, 5, 5, 5, 5, 4, 4, 4, 3, 3, 3, 5, 4, 3, 3, 2, 2, 4, 4, 4, 4, 4, 4, 5, 4, 4, 3, 3, 3, 5, 3, 3, 2, 1, 1, 4, 4, 4, 4, 4, 4, 2, 2, 2, 1, 1, 1, 5, 4, 4, 4, 4, 4, 4, 4, 4, 4, 4, 4, 3, 2, 2, 1, 1, 1, 3, 3, 3, 3, 2, 2, 4, 3, 3, 3, 3, 3, 5, 4, 4, 3, 3, 2, 2, 2, 2, 2, 2, 2, 4, 3, 3, 3, 3, 3, 5, 4, 3, 3, 2, 2, 3, 2, 2, 2, 1, 1, 4, 3, 3, 3, 3, 3, 4, 4, 4, 4, 4, 4, 3, 2, 2, 2, 1, 1, 2, 2, 2, 2, 1, 1, 1, 1, 1, 1, 1, 1, 5, 4, 4, 4, 4, 4, 4, 3, 2, 2, 1, 1, 3, 3, 3, 2, 2, 1, 5, 4, 4, 4, 4, 4, 4, 4, 4, 4, 4, 4, 4, 3, 3, 2, 2, 2, 3, 3, 2, 2, 2, 1, 3, 2, 2, 2, 2, 2, 2, 2, 2, 2, 2, 2
 |5, 4, 4, 4, 4, 4, 4, 3, 3, 3, 1, 1, 2, 2, 2, 2, 2, 2, 4, 4, 4, 3, 3, 3, 3, 3, 3, 3, 2, 2, 4, 3, 3, 3, 3, 3, 3, 3, 2, 2, 1, 1, 4, 3, 3, 3, 3, 3, 5, 4, 4, 3, 2, 2, 3, 3, 3, 3, 3, 3, 1, 1, 1, 1, 1, 1, 2, 1, 1, 1, 1, 1, 5, 4, 4, 4, 4, 4, 5, 4, 4, 4, 4, 4, 3, 2, 2, 2, 2, 2, 3, 2, 2, 2, 2, 2, 1, 1, 1, 1, 1, 1, 2, 2, 2, 2, 2, 2, 3, 3, 3, 3, 3, 3, 1, 1, 1, 1, 1, 1, 3, 3, 3, 2, 2, 2, 3, 2, 2, 2, 2, 2, 1, 1, 1, 1, 1, 1, 3, 3, 3, 2, 1, 1, 4, 4, 4, 3, 3, 3, 1, 1, 1, 1, 1, 1, 4, 4, 3, 3, 2, 1, 2, 2, 2, 2, 2, 2, 2, 1, 1, 1, 1, 1, 2, 2, 2, 2, 2, 2, 5, 5, 5, 5, 5, 5, 4, 4, 4, 4, 3, 3, 3, 2, 2, 1, 1, 1, 5, 4, 4, 3, 3, 3, 1, 1, 1, 1, 1, 1, 3, 3, 2, 2, 1, 1, 5, 4, 4, 4, 4, 4, 4, 4, 4, 3, 3, 2, 4, 3, 3, 2, 1, 1, 4, 3, 3, 3, 2, 1, 3, 3, 3, 3, 3, 3, 3, 3, 3, 3, 3, 3, 4, 4, 4, 3, 2, 2, 4, 3, 3, 2, 2, 2, 4, 4, 4, 4, 4, 4, 4, 4, 3, 2, 1, 1, 3, 3, 2, 2, 1, 1, 5, 4, 3, 3, 1, 1, 4, 4, 4, 4, 4, 4, 4, 4, 4, 3, 2, 2
 |10, 8, 8, 5, 5, 2, 16, 15, 14, 10, 10, 7, 17, 14, 12, 9, 7, 4, 14, 11, 10, 10, 7, 7, 5, 5, 5, 4, 4, 4, 18, 17, 17, 17, 17, 17, 17, 15, 13, 10, 7, 5, 19, 14, 13, 11, 8, 5, 4, 3, 3, 2, 2, 2, 16, 13, 12, 10, 6, 5, 9, 9, 7, 6, 5, 5, 6, 6, 6, 6, 5, 5, 13, 12, 9, 8, 5, 4, 9, 7, 6, 4, 3, 2, 10, 9, 8, 8, 7, 6, 14, 10, 8, 8, 4, 4, 12, 10, 8, 5, 5, 2, 12, 8, 6, 5, 2, 2, 19, 17, 15, 12, 12, 8, 6, 6, 6, 6, 5, 5, 14, 11, 10, 10, 8, 7, 17, 16, 16, 15, 13, 13, 19, 17, 17, 15, 14, 13, 18, 17, 14, 13, 12, 10, 12, 10, 9, 6, 4, 3, 15, 13, 12, 11, 11, 10, 12, 9, 8, 7, 6, 6, 19, 14, 12, 9, 7, 5, 11, 9, 8, 7, 4, 4, 12, 10, 9, 8, 6, 5, 17, 16, 13, 12, 8, 4, 7, 6, 5, 4, 3, 3, 20, 16, 16, 14, 11, 8, 16, 15, 12, 9, 4, 1, 15, 14, 14, 13, 13, 13, 9, 7, 6, 3, 2, 1, 18, 16, 14, 14, 10, 9, 12, 12, 11, 9, 8, 8, 16, 14, 14, 14, 13, 12, 4, 4, 4, 4, 4, 4, 4, 4, 4, 4, 4, 4, 5, 3, 3, 3, 1, 1, 17, 15, 15, 14, 12, 11, 13, 12, 12, 12, 11, 11, 17, 17, 17, 17, 17, 17, 5, 4, 3, 2, 1, 1, 16, 12, 10, 8, 5, 5, 2, 2, 2, 1, 1, 1, 7, 7, 7, 7, 7, 7, 13, 12, 10, 7, 4, 3
 |14, 12, 11, 11, 10, 8, 19, 17, 15, 15, 13, 10, 16, 15, 15, 15, 13, 13, 5, 4, 4, 3, 3, 2, 17, 16, 15, 15, 14, 13, 15, 15, 13, 12, 11, 8, 4, 4, 4, 4, 4, 4, 17, 17, 13, 13, 11, 9, 15, 13, 12, 10, 8, 7, 11, 9, 7, 5, 3, 1, 6, 6, 6, 5, 6, 5, 19, 17, 16, 15, 16, 15, 17, 15, 15, 14, 12, 12, 4, 3, 3, 2, 2, 2, 13, 13, 13, 12, 12, 12, 7, 7, 8, 7, 6, 5, 15, 13, 11, 10, 9, 8, 20, 20, 20, 20, 20, 19, 12, 12, 9, 9, 7, 5, 17, 16, 15, 17, 16, 15, 20, 19, 18, 18, 17, 17, 14, 13, 12, 9, 9, 7, 16, 14, 12, 7, 6, 5, 18, 17, 17, 17, 17, 17, 12, 12, 11, 9, 8, 7, 9, 9, 7, 5, 2, 1, 18, 18, 17, 17, 16, 16, 4, 4, 4, 3, 3, 2, 13, 12, 9, 6, 6, 4, 3, 3, 3, 3, 3, 3, 12, 10, 9, 8, 6, 3, 16, 16, 13, 11, 10, 9, 17, 17, 16, 16, 15, 15, 11, 9, 9, 6, 5, 3, 12, 10, 10, 10, 8, 7, 10, 9, 8, 7, 5, 3, 17, 17, 14, 9, 5, 3, 11, 10, 9, 8, 7, 7, 16, 15, 13, 7, 4, 4, 7, 7, 6, 5, 6, 6, 19, 18, 17, 16, 15, 14, 12, 12, 11, 10, 11, 10, 2, 2, 2, 2, 1, 1, 11, 10, 7, 5, 4, 2, 12, 12, 11, 10, 9, 8, 15, 14, 14, 14, 14, 13, 17, 15, 15, 14, 13, 12, 6, 5, 4, 4, 3, 2, 20, 16, 13, 10, 9, 6, 11, 11, 11, 11, 11, 11|];